NAME: ACTUAL_TOURS/amz1401
TYPE: TOUR
COMMENT: RouteID_956d3772-8e4f-4f80-a68c-cc1112e82609
DIMENSION: 132
TOUR_SECTION
25
63
73
37
7
94
59
1
105
90
60
106
74
85
107
54
104
3
17
76
65
21
39
103
88
89
38
40
99
130
81
47
42
55
48
4
23
127
32
84
97
5
101
115
117
13
112
27
20
83
9
71
10
122
66
98
22
62
124
100
51
87
2
64
132
35
24
15
113
75
92
72
29
82
31
129
102
16
19
53
8
126
109
95
36
12
58
121
43
93
26
108
119
6
114
116
52
45
18
68
14
33
123
61
67
50
77
46
128
30
69
79
41
86
125
80
11
56
78
120
111
110
49
118
44
96
34
28
70
131
91
57
-1
EOF
